% File represents an instance of a Composite Structure problem to be solved by a CP framework
% Created on 2025-03-26 10:41:15.557
T = 50;
n = 9;
m = 12;
edges = [(2, 1),
(5, 4),
(8, 7),
(2, 3),
(5, 6),
(8, 9),
(1, 4),
(4, 7),
(2, 5),
(5, 8),
(3, 6),
(6, 9)];
counts = [|12, 18, 12, 6,
|12, 18, 12, 8,
|10, 18, 10, 6,
|10, 18, 10, 4,
|10, 18, 10, 6,
|10, 16, 10, 6,
|8, 18, 8, 4,
|8, 18, 8, 6,
|8, 16, 8, 6|];
